NAME          ClpDefau  FREE
ROWS
 N  OBJROW
 L  ZMUNI1_PCT
 L  ZMUNI2_PCT
 L  ZMUNI3_PCT
 L  ZMUNI4_PCT
 L  ZMUNI5_PCT
 L  ZMUNI6_PCT
 L  ZMUNI7_PCT
 L  ZMUNI8_PCT
 L  ZMUNI9_PCT
COLUMNS
    QMUNI1 OBJROW 1.          
    QMUNI1 ZMUNI1_PCT 27956.3904  
    QMUNI1 ZMUNI2_PCT 1380.2529   
    QMUNI1 ZMUNI3_PCT 3890.0376   
    QMUNI1 ZMUNI4_PCT 2709.31721  
    QMUNI1 ZMUNI5_PCT 164.1273    
    QMUNI1 ZMUNI6_PCT 288.9633    
    QMUNI1 ZMUNI7_PCT 1153.183    
    QMUNI1 ZMUNI8_PCT 634.5749    
    QMUNI1 ZMUNI9_PCT  -495.1477  
    QMUNI2 OBJROW 1.          
    QMUNI2 ZMUNI1_PCT 1128.7689   
    QMUNI2 ZMUNI2_PCT 32599.2585  
    QMUNI2 ZMUNI3_PCT 1941.0134   
    QMUNI2 ZMUNI4_PCT 2127.28978  
    QMUNI2 ZMUNI5_PCT  -527.7634  
    QMUNI2 ZMUNI6_PCT  -531.9596  
    QMUNI2 ZMUNI7_PCT  -308.7997  
    QMUNI2 ZMUNI8_PCT  -157.3562  
    QMUNI2 ZMUNI9_PCT  -431.633   
    QMUNI3 OBJROW 1.          
    QMUNI3 ZMUNI1_PCT 3792.0952   
    QMUNI3 ZMUNI2_PCT 2306.0799   
    QMUNI3 ZMUNI3_PCT 29354.2862  
    QMUNI3 ZMUNI4_PCT 4675.34066  
    QMUNI3 ZMUNI5_PCT  -550.8423  
    QMUNI3 ZMUNI6_PCT  -419.426   
    QMUNI3 ZMUNI7_PCT 583.0765    
    QMUNI3 ZMUNI8_PCT 563.0493    
    QMUNI3 ZMUNI9_PCT  -53.5011   
    QMUNI4 OBJROW 1.          
    QMUNI4 ZMUNI1_PCT 2661.1328   
    QMUNI4 ZMUNI2_PCT 2379.4175   
    QMUNI4 ZMUNI3_PCT 4841.6138   
    QMUNI4 ZMUNI4_PCT 100430.72701
    QMUNI4 ZMUNI5_PCT  -403.4043  
    QMUNI4 ZMUNI6_PCT  -374.4126  
    QMUNI4 ZMUNI7_PCT  -15.831    
    QMUNI4 ZMUNI8_PCT  -136.1847  
    QMUNI4 ZMUNI9_PCT  -826.0727  
    QMUNI5 OBJROW 1.          
    QMUNI5 ZMUNI1_PCT  -364.3036  
    QMUNI5 ZMUNI2_PCT  -487.8997  
    QMUNI5 ZMUNI3_PCT  -417.8047  
    QMUNI5 ZMUNI4_PCT  -374.43637 
    QMUNI5 ZMUNI5_PCT 32331.9435  
    QMUNI5 ZMUNI6_PCT 2010.5362   
    QMUNI5 ZMUNI7_PCT  -922.966   
    QMUNI5 ZMUNI8_PCT  -1112.5564 
    QMUNI5 ZMUNI9_PCT  -1351.9287 
    QMUNI6 OBJROW 1.          
    QMUNI6 ZMUNI1_PCT  -381.4697  
    QMUNI6 ZMUNI2_PCT  -586.0328  
    QMUNI6 ZMUNI3_PCT  -474.9298  
    QMUNI6 ZMUNI4_PCT  -449.9197  
    QMUNI6 ZMUNI5_PCT 2115.8218   
    QMUNI6 ZMUNI6_PCT 30698.204   
    QMUNI6 ZMUNI7_PCT  -911.3312  
    QMUNI6 ZMUNI8_PCT  -1221.2753 
    QMUNI6 ZMUNI9_PCT  -1541.6145 
    QMUNI7 OBJROW 1.          
    QMUNI7 ZMUNI1_PCT 775.3372    
    QMUNI7 ZMUNI2_PCT 112.0568    
    QMUNI7 ZMUNI3_PCT 588.3217    
    QMUNI7 ZMUNI4_PCT 368.54744   
    QMUNI7 ZMUNI5_PCT  -370.5025  
    QMUNI7 ZMUNI6_PCT  -244.4267  
    QMUNI7 ZMUNI7_PCT 26742.7445  
    QMUNI7 ZMUNI8_PCT 779.5334    
    QMUNI7 ZMUNI9_PCT  -1041.7938 
    QMUNI8 OBJROW 1.          
    QMUNI8 ZMUNI1_PCT 725.4601    
    QMUNI8 ZMUNI2_PCT 543.0222    
    QMUNI8 ZMUNI3_PCT 742.817     
    QMUNI8 ZMUNI4_PCT 528.6932    
    QMUNI8 ZMUNI5_PCT  -460.5294  
    QMUNI8 ZMUNI6_PCT  -390.625   
    QMUNI8 ZMUNI7_PCT 1238.823    
    QMUNI8 ZMUNI8_PCT 25656.8909  
    QMUNI8 ZMUNI9_PCT  -7.7247    
    QMUNI9 OBJROW 1.          
    QMUNI9 ZMUNI1_PCT 22.9836     
    QMUNI9 ZMUNI2_PCT 269.7945    
    QMUNI9 ZMUNI3_PCT 95.7489     
    QMUNI9 ZMUNI4_PCT 66.87642    
    QMUNI9 ZMUNI5_PCT  -322.1512  
    QMUNI9 ZMUNI6_PCT  -347.2328  
    QMUNI9 ZMUNI7_PCT  -366.7831  
    QMUNI9 ZMUNI8_PCT  -10.2997   
    QMUNI9 ZMUNI9_PCT 23514.4616  
RHS
    RHS ZMUNI1_PCT 4.3696105845
    RHS ZMUNI2_PCT 2.6008512886
    RHS ZMUNI3_PCT 1.526431408 
    RHS ZMUNI4_PCT  -2.00220708
    RHS ZMUNI5_PCT 1.3937763617
    RHS ZMUNI6_PCT 2.4846353335
    RHS ZMUNI7_PCT  -0.89508027
    RHS ZMUNI8_PCT  -0.21189275
    RHS ZMUNI9_PCT 1.2315641989
BOUNDS
 LO BOUND QMUNI1 -0.001018551
 UP BOUND QMUNI1      1.1e+10
 LO BOUND QMUNI2 -0.000753213
 UP BOUND QMUNI2      1.1e+10
 LO BOUND QMUNI3 -0.000780683
 UP BOUND QMUNI3      1.1e+10
 LO BOUND QMUNI4 -0.0003608  
 UP BOUND QMUNI4      1.1e+10
 LO BOUND QMUNI5 -0.000624021
 UP BOUND QMUNI5      1.1e+10
 LO BOUND QMUNI6 -0.000760952
 UP BOUND QMUNI6      1.1e+10
 LO BOUND QMUNI7 -0.000448214
 UP BOUND QMUNI7      1.1e+10
 LO BOUND QMUNI8 -0.000566965
 UP BOUND QMUNI8      1.1e+10
 LO BOUND QMUNI9 -0.000683925
 UP BOUND QMUNI9      1.1e+10
ENDATA
